benchmarks_vrp/CMT3/no_cluster/CMT3_2.vrp
NAME: CMT3_2
TYPE: CVRP
COMMENT: 826.14 - Cluster Nr.2
DIMENSION: 17
CAPACITY: 200
EDGE_WEIGHT_TYPE: EUC_2D
NODE_COORD_TYPE: TWOD_COORDS
NODE_COORD_SECTION: 
13 45 20
17 44 17
11 36 26
2 23 3
4 32 12
8 40 25
16 24 12
5 35 17
14 30 25
6 25 21
15 42 7
3 47 16
9 30 5
12 28 18
10 35 35
1 45 10
7 46 13
DEPOT_SECTION: 
10
-1
DEMAND_SECTION: 
2 7
6 12
5 7
3 25
4 7
12 26
15 5
8 9
7 8
1 18
16 5
17 9
14 23
9 8
11 18
10 0
13 11
EOF
