benchmarks_vrp/CMT3/no_cluster/CMT3_2.tour
NAME: CMT3_2 solution
TYPE: TOUR
TOUR_SECTION:
10 11 8 13 17 3 7 1 15 5 4 9 2 16 12 6 14 -1
-1
EOF